Data path: /scratch/opt/lxu/CFLG/benchmarks/Kgroup_A
Instance: K100.3.con.red
Result path: /scratch/opt/lxu/CFLG/results/Kgroup_A
Solver: Gurobi
Time limit: 3600
Formulation: LEFP
Cover: Large
julia --project=. src/main.jl /scratch/opt/lxu/CFLG/benchmarks/Kgroup_A K100.3.con.red /scratch/opt/lxu/CFLG/results/Kgroup_A Gurobi 3600 LEFP Large
The latest version of Julia in the `release` channel is 1.11.5+0.x64.linux.gnu. You currently have `1.11.4+0.x64.linux.gnu` installed. Run:

  juliaup update

in your terminal shell to install Julia 1.11.5+0.x64.linux.gnu and update the `release` channel to that version.
/scratch/opt/lxu/CFLG/benchmarks/Kgroup_A Gurobi 3600.0 /scratch/opt/lxu/CFLG/results/Kgroup_A K100.3.con.red LEFP Large
/scratch/opt/lxu/CFLG/benchmarks/Kgroup_A/K100.3.con.red

 read graph
data loaded


after absorb:26 26

max_piece:4
problem_graph/original graph: node: 29/26 edge: 126/123 dlt: 0.30222018115641147 break_avg_len: 0.1475122312787247 break_max_len: 1.0Set parameter TokenServer to value "solice01.zib.de"
Set parameter Threads to value 1
Set parameter OutputFlag to value 1
Gurobi Optimizer version 12.0.1 build v12.0.1rc0 (linux64 - "Debian GNU/Linux 12 (bookworm)")

CPU model: Intel(R) Xeon(R) Gold 5222 CPU @ 3.80GHz, instruction set [SSE2|AVX|AVX2|AVX512]
Thread count: 8 physical cores, 16 logical processors, using up to 1 threads

Non-default parameters:
Threads  1

Optimize a model with 155 rows, 378 columns and 630 nonzeros
Model fingerprint: 0x367380a1
Coefficient statistics:
  Matrix range     [1e+00, 1e+00]
  Objective range  [1e+00, 1e+00]
  Bounds range     [1e+00, 1e+00]
  RHS range        [0e+00, 0e+00]
Presolve removed 155 rows and 378 columns
Presolve time: 0.00s
Presolve: All rows and columns removed
Iteration    Objective       Primal Inf.    Dual Inf.      Time
       0   -0.0000000e+00   0.000000e+00   0.000000e+00      0s

Solved in 0 iterations and 0.00 seconds (0.00 work units)
Optimal objective -0.000000000e+00

User-callback calls 36, time in user-callback 0.00 sec
elapsed CPU time: 0.955909 seconds
Set parameter TokenServer to value "solice01.zib.de"
Set parameter Threads to value 1
Set parameter OutputFlag to value 1
Set parameter MIPGap to value 0.0001
Set parameter MIPGapAbs to value 1
Set parameter TimeLimit to value 3599.044091

 more cuts:falsefalse
0 0
formulation:LEFP4 122 23

 model loaded

Gurobi Optimizer version 12.0.1 build v12.0.1rc0 (linux64 - "Debian GNU/Linux 12 (bookworm)")

CPU model: Intel(R) Xeon(R) Gold 5222 CPU @ 3.80GHz, instruction set [SSE2|AVX|AVX2|AVX512]
Thread count: 8 physical cores, 16 logical processors, using up to 1 threads

Non-default parameters:
TimeLimit  3599.044091
MIPGapAbs  1
Threads  1

Optimize a model with 9879 rows, 5017 columns and 29242 nonzeros
Model fingerprint: 0xaa7a4413
Variable types: 281 continuous, 4736 integer (4736 binary)
Coefficient statistics:
  Matrix range     [1e-06, 1e+00]
  Objective range  [1e+00, 1e+00]
  Bounds range     [2e-02, 1e+00]
  RHS range        [2e-02, 1e+01]
Presolve removed 2610 rows and 377 columns
Presolve time: 0.08s
Presolved: 7269 rows, 4640 columns, 25100 nonzeros
Variable types: 159 continuous, 4481 integer (4481 binary)
Found heuristic solution: objective 128.0000000
Found heuristic solution: objective 71.0000000

Root relaxation: objective 4.089742e+00, 2153 iterations, 0.06 seconds (0.11 work units)

    Nodes    |    Current Node    |     Objective Bounds      |     Work
 Expl Unexpl |  Obj  Depth IntInf | Incumbent    BestBd   Gap | It/Node Time

     0     0    4.08974    0   88   71.00000    4.08974  94.2%     -    0s
H    0     0                      52.0000000    4.08974  92.1%     -    0s
H    0     0                      13.0000000    4.08974  68.5%     -    0s
H    0     0                      12.0000000    4.08974  65.9%     -    0s
H    0     0                      11.0000000    4.08974  62.8%     -    0s
H    0     0                      10.0000000    4.08974  59.1%     -    0s
H    0     0                       9.0000000    4.08974  54.6%     -    0s
H    0     0                       8.0000000    4.08974  48.9%     -    0s
     0     0    5.35368    0  151    8.00000    5.35368  33.1%     -    0s
H    0     0                       7.0000000    5.35906  23.4%     -    0s
     0     0    5.35906    0  149    7.00000    5.35906  23.4%     -    0s
     0     0    5.35906    0  133    7.00000    5.35906  23.4%     -    0s
     0     0    5.35906    0  134    7.00000    5.35906  23.4%     -    0s
     0     0    5.35906    0  134    7.00000    5.35906  23.4%     -    0s
     0     0    6.00000    0  152    7.00000    6.00000  14.3%     -    1s
     0     0    6.00000    0  151    7.00000    6.00000  14.3%     -    1s
     0     0    6.00000    0  114    7.00000    6.00000  14.3%     -    1s
     0     0    6.00000    0  141    7.00000    6.00000  14.3%     -    1s
     0     0    6.00000    0  118    7.00000    6.00000  14.3%     -    1s
     0     0    6.00000    0  142    7.00000    6.00000  14.3%     -    1s
     0     0    6.00000    0   26    7.00000    6.00000  14.3%     -    1s
     0     0    6.00000    0   31    7.00000    6.00000  14.3%     -    1s
     0     0    6.00000    0   30    7.00000    6.00000  14.3%     -    1s
     0     0    6.00000    0   45    7.00000    6.00000  14.3%     -    1s
     0     0    6.00000    0   34    7.00000    6.00000  14.3%     -    1s
     0     0    6.00000    0   72    7.00000    6.00000  14.3%     -    2s
     0     0    6.00000    0   82    7.00000    6.00000  14.3%     -    2s
     0     0    6.00000    0   75    7.00000    6.00000  14.3%     -    2s
     0     0    6.00000    0  189    7.00000    6.00000  14.3%     -    2s
     0     0    6.00000    0  136    7.00000    6.00000  14.3%     -    2s
     0     0    6.00000    0  115    7.00000    6.00000  14.3%     -    3s
     0     0    6.00000    0   96    7.00000    6.00000  14.3%     -    3s
     0     0    6.00000    0   95    7.00000    6.00000  14.3%     -    3s
     0     0    6.00000    0   93    7.00000    6.00000  14.3%     -    3s
     0     0    6.00000    0  118    7.00000    6.00000  14.3%     -    3s
     0     0    6.00000    0  115    7.00000    6.00000  14.3%     -    3s
     0     0    6.00000    0  106    7.00000    6.00000  14.3%     -    3s
     0     0    6.00000    0   85    7.00000    6.00000  14.3%     -    3s
     0     2    6.00000    0   85    7.00000    6.00000  14.3%     -    4s

Cutting planes:
  Learned: 5
  Gomory: 1
  Cover: 9
  Implied bound: 3
  Clique: 6
  MIR: 3
  StrongCG: 1
  RLT: 1
  Relax-and-lift: 78
  BQP: 4

Explored 3 nodes (65340 simplex iterations) in 4.23 seconds (5.88 work units)
Thread count was 1 (of 16 available processors)

Solution count 10: 7 8 9 ... 128

Optimal solution found (tolerance 1.00e-04)
Best objective 7.000000000000e+00, best bound 7.000000000000e+00, gap 0.0000%

User-callback calls 1589, time in user-callback 0.00 sec

 sepatime0
7.0Stat(MathOptInterface.OPTIMAL, 7.0, 7.0, 0.0, 0.0, 0.955909, 4.225567102432251, 3, Main.CFLG.LEFP, "", #undef)
